branch-and-cut/resultados/B/b08.sol
# Objective value = 104
e[0,19] 0
e[19,0] 0
e[3,41] 0
e[41,3] 0
e[4,63] 1
e[63,4] 1
e[5,39] 0
e[39,5] 0
e[5,55] 1
e[55,5] 1
e[5,70] 1
e[70,5] 1
e[7,6] 0
e[6,7] 0
e[7,9] 0
e[9,7] 0
e[7,16] 0
e[16,7] 0
e[7,66] 0
e[66,7] 0
e[7,72] 1
e[72,7] 1
e[8,16] 0
e[16,8] 0
e[10,35] 0
e[35,10] 0
e[11,31] 0
e[31,11] 0
e[12,15] 1
e[15,12] 1
e[12,43] 0
e[43,12] 0
e[12,50] 0
e[50,12] 0
e[14,52] 0
e[52,14] 0
e[15,53] 1
e[53,15] 1
e[16,72] 1
e[72,16] 1
e[20,21] 0
e[21,20] 0
e[22,57] 0
e[57,22] 0
e[23,58] 0
e[58,23] 0
e[26,7] 1
e[7,26] 1
e[26,33] 1
e[33,26] 1
e[26,42] 0
e[42,26] 0
e[26,47] 0
e[47,26] 0
e[26,56] 0
e[56,26] 0
e[27,65] 0
e[65,27] 0
e[28,68] 0
e[68,28] 0
e[29,51] 0
e[51,29] 0
e[29,61] 0
e[61,29] 0
e[29,71] 0
e[71,29] 0
e[30,2] 0
e[2,30] 0
e[30,4] 1
e[4,30] 1
e[30,36] 0
e[36,30] 0
e[30,53] 1
e[53,30] 1
e[30,62] 0
e[62,30] 0
e[30,74] 0
e[74,30] 0
e[32,22] 0
e[22,32] 0
e[32,28] 1
e[28,32] 1
e[32,37] 1
e[37,32] 1
e[32,67] 0
e[67,32] 0
e[34,26] 1
e[26,34] 1
e[34,32] 1
e[32,34] 1
e[34,45] 1
e[45,34] 1
e[34,49] 1
e[49,34] 1
e[35,23] 0
e[23,35] 0
e[38,19] 0
e[19,38] 0
e[38,25] 0
e[25,38] 0
e[39,45] 0
e[45,39] 0
e[42,5] 1
e[5,42] 1
e[42,10] 1
e[10,42] 1
e[43,14] 0
e[14,43] 0
e[43,67] 0
e[67,43] 0
e[44,40] 0
e[40,44] 0
e[44,59] 0
e[59,44] 0
e[44,65] 0
e[65,44] 0
e[45,3] 0
e[3,45] 0
e[45,5] 0
e[5,45] 0
e[45,17] 0
e[17,45] 0
e[45,20] 0
e[20,45] 0
e[45,41] 0
e[41,45] 0
e[47,44] 0
e[44,47] 0
e[49,12] 1
e[12,49] 1
e[49,24] 0
e[24,49] 0
e[49,27] 1
e[27,49] 1
e[49,29] 1
e[29,49] 1
e[49,72] 0
e[72,49] 0
e[50,13] 0
e[13,50] 0
e[50,34] 1
e[34,50] 1
e[53,1] 1
e[1,53] 1
e[53,14] 0
e[14,53] 0
e[53,46] 0
e[46,53] 0
e[55,73] 0
e[73,55] 0
e[56,30] 0
e[30,56] 0
e[56,64] 0
e[64,56] 0
e[57,38] 0
e[38,57] 0
e[57,55] 0
e[55,57] 0
e[60,37] 0
e[37,60] 0
e[62,11] 0
e[11,62] 0
e[62,73] 0
e[73,62] 0
e[63,0] 1
e[0,63] 1
e[64,18] 0
e[18,64] 0
e[64,37] 1
e[37,64] 1
e[65,11] 0
e[11,65] 0
e[66,67] 0
e[67,66] 0
e[68,8] 0
e[8,68] 0
e[68,52] 0
e[52,68] 0
e[70,48] 0
e[48,70] 0
e[70,54] 0
e[54,70] 0
e[72,5] 1
e[5,72] 1
e[72,69] 0
e[69,72] 0
e[74,60] 0
e[60,74] 0
